nN = 6;
nR = 15;
nH = 1;

a = [[12, 12, 9, 19, 12, 20, 8, 16, 18, 7, 12, 11, 22, 6, 18], [18, 10, 14, 23, 7, 20, 14, 8, 24, 24, 9, 14, 20, 20, 8], [7, 22, 13, 23, 18, 7, 23, 12, 11, 15, 5, 12, 17, 7, 23], [13, 12, 5, 10, 24, 6, 12, 18, 8, 17, 18, 9, 23, 18, 19], [5, 20, 17, 24, 18, 17, 6, 12, 19, 7, 8, 5, 15, 14, 23], [24, 23, 17, 21, 7, 6, 24, 7, 18, 22, 13, 5, 22, 7, 8]];
c = [[[0, 0, 0, 0, 0, 0, 0, 0, 0, 0, 0, 0, 0, 0, 0], [48, 40, 37, 48, 46, 36, 42, 45, 50, 44, 47, 46, 45, 34, 32], [40, 33, 32, 42, 37, 35, 32, 34, 42, 40, 35, 45, 33, 36, 48], [37, 31, 50, 41, 46, 42, 41, 38, 49, 33, 47, 39, 43, 47, 44], [36, 31, 49, 45, 36, 38, 38, 42, 40, 34, 34, 30, 43, 39, 35], [48, 45, 32, 50, 41, 44, 31, 43, 40, 38, 36, 38, 32, 47, 44]], [[0, 0, 0, 0, 0, 0, 0, 0, 0, 0, 0, 0, 0, 0, 0], [0, 0, 0, 0, 0, 0, 0, 0, 0, 0, 0, 0, 0, 0, 0], [45, 32, 33, 32, 43, 48, 30, 37, 46, 35, 39, 33, 37, 30, 45], [39, 30, 35, 43, 30, 31, 39, 48, 34, 34, 33, 40, 39, 40, 48], [45, 49, 50, 48, 41, 37, 32, 36, 37, 30, 47, 32, 39, 50, 34], [47, 47, 48, 41, 36, 43, 33, 40, 36, 38, 49, 38, 32, 49, 47]], [[0, 0, 0, 0, 0, 0, 0, 0, 0, 0, 0, 0, 0, 0, 0], [0, 0, 0, 0, 0, 0, 0, 0, 0, 0, 0, 0, 0, 0, 0], [0, 0, 0, 0, 0, 0, 0, 0, 0, 0, 0, 0, 0, 0, 0], [30, 37, 34, 40, 47, 48, 30, 32, 42, 42, 46, 30, 46, 44, 48], [39, 30, 33, 43, 47, 39, 37, 44, 49, 44, 36, 45, 44, 32, 35], [35, 45, 40, 36, 48, 42, 42, 37, 43, 41, 44, 34, 47, 39, 31]], [[0, 0, 0, 0, 0, 0, 0, 0, 0, 0, 0, 0, 0, 0, 0], [0, 0, 0, 0, 0, 0, 0, 0, 0, 0, 0, 0, 0, 0, 0], [0, 0, 0, 0, 0, 0, 0, 0, 0, 0, 0, 0, 0, 0, 0], [0, 0, 0, 0, 0, 0, 0, 0, 0, 0, 0, 0, 0, 0, 0], [35, 46, 45, 42, 48, 49, 41, 50, 36, 44, 35, 48, 35, 37, 47], [34, 44, 42, 40, 44, 48, 30, 36, 36, 42, 46, 45, 45, 45, 37]], [[0, 0, 0, 0, 0, 0, 0, 0, 0, 0, 0, 0, 0, 0, 0], [0, 0, 0, 0, 0, 0, 0, 0, 0, 0, 0, 0, 0, 0, 0], [0, 0, 0, 0, 0, 0, 0, 0, 0, 0, 0, 0, 0, 0, 0], [0, 0, 0, 0, 0, 0, 0, 0, 0, 0, 0, 0, 0, 0, 0], [0, 0, 0, 0, 0, 0, 0, 0, 0, 0, 0, 0, 0, 0, 0], [45, 45, 47, 36, 50, 33, 30, 45, 45, 44, 41, 44, 31, 44, 48]], [[0, 0, 0, 0, 0, 0, 0, 0, 0, 0, 0, 0, 0, 0, 0], [0, 0, 0, 0, 0, 0, 0, 0, 0, 0, 0, 0, 0, 0, 0], [0, 0, 0, 0, 0, 0, 0, 0, 0, 0, 0, 0, 0, 0, 0], [0, 0, 0, 0, 0, 0, 0, 0, 0, 0, 0, 0, 0, 0, 0], [0, 0, 0, 0, 0, 0, 0, 0, 0, 0, 0, 0, 0, 0, 0], [0, 0, 0, 0, 0, 0, 0, 0, 0, 0, 0, 0, 0, 0, 0]]];
Q = [[31], [34], [31], [32], [31], [32]];

q = [[[18], [12], [14], [20], [10], [5], [23], [10], [12], [20], [14], [11], [23], [15], [23]], [[11], [8], [7], [18], [25], [17], [19], [9], [24], [11], [19], [17], [24], [22], [24]], [[25], [7], [8], [18], [14], [5], [8], [13], [21], [15], [23], [22], [20], [8], [22]], [[8], [24], [12], [20], [9], [15], [22], [24], [9], [18], [20], [21], [7], [25], [6]], [[19], [20], [7], [14], [15], [13], [24], [21], [8], [15], [15], [16], [17], [20], [8]], [[20], [22], [5], [13], [22], [15], [21], [5], [17], [14], [24], [16], [11], [15], [18]]];
p = [0.04, 0.94, 0.35, 0.2, 0.44, 0.03, 0.82, 0.07, 0.55, 0.26, 0.84, 0.27, 0.24, 0.35, 0.74];
